NAME: p03_7090_tsplib0_NORMALIZED
BEST_KNOWN: 0
COMMENT: 0
DIMENSION: 101
CAPACITY: 100
EDGE_WEIGHT_FORMAT: FUNCTION
EDGE_WEIGHT_TYPE: EXACT_2D
NODE_COORD_SECTION
1 0 0
2 6 14
3 0 -18
4 20 10
5 20 -15
6 -20 -5
7 -10 -5
8 -15 15
9 -25 8
10 20 25
11 -5 25
12 -15 30
13 15 0
14 -5 -10
15 -20 -25
16 -5 -30
17 -25 -15
18 -30 -5
19 -15 5
20 -20 25
21 10 30
22 10 -15
23 10 -25
24 20 -30
25 30 0
26 30 -15
27 10 -5
28 0 5
29 6 2
30 29 7
31 5 25
32 -4 17
33 0 34
34 18 17
35 30 20
36 28 30
37 -33 25
38 -15 -15
39 -30 -30
40 25 -23
41 5 -10
42 7 -28
43 -11 -23
44 -12 -32
45 -24 -21
46 -29 3
47 -33 13
48 -27 21
49 -22 17
50 -29 33
51 12 12
52 14 23
53 -8 8
54 2 -4
55 22 -6
56 28 -12
57 18 -23
58 -3 -23
59 1 -9
60 -14 -11
61 -18 -1
62 -23 -11
63 -11 23
64 -8 34
65 -20 42
66 27 42
67 14 38
68 32 -30
69 21 4
70 2 12
71 2 21
72 22 33
73 12 -19
74 9 -18
75 11 -22
76 14 -24
77 14 7
78 18 8
79 26 17
80 22 13
81 21 2
82 20 19
83 -20 12
84 -21 2
85 -24 -4
86 -19 -13
87 -31 -17
88 -7 -17
89 -9 17
90 -9 0
91 -4 32
92 -20 -16
93 -13 -13
94 -17 -11
95 -9 -8
96 -10 -11
97 -13 -8
98 -10 -14
99 -16 -14
100 -15 -9
101 -17 -17
DEMAND_SECTION
1 0
2 87
3 77
4 74
5 81
6 88
7 87
8 79
9 72
10 74
11 70
12 86
13 77
14 79
15 80
16 84
17 75
18 71
19 80
20 87
21 80
22 72
23 82
24 83
25 81
26 85
27 84
28 70
29 85
30 73
31 72
32 87
33 86
34 86
35 74
36 86
37 79
38 85
39 79
40 79
41 86
42 73
43 71
44 82
45 83
46 87
47 75
48 79
49 78
50 86
51 82
52 83
53 83
54 71
55 88
56 84
57 84
58 76
59 84
60 78
61 76
62 87
63 75
64 76
65 75
66 77
67 79
68 87
69 71
70 89
71 87
72 88
73 87
74 86
75 89
76 71
77 76
78 81
79 84
80 81
81 86
82 83
83 75
84 83
85 82
86 89
87 85
88 89
89 86
90 87
91 72
92 86
93 81
94 73
95 88
96 83
97 85
98 85
99 78
100 85
101 72
DEPOT_SECTION
1
-1
EOF